<?xml version = "1.0" standalone="yes"?>
<!-- This file has been generated by DOcplex version 2.23.222  -->
<CPLEXSolution version="1.0">
 <header
   problemName="CVRP"
   objectiveValue="4946.62"
  />
 <variables>
  <variable name="x_0_1" index="0" value="1.00000"/>
  <variable name="x_0_2" index="1" value="1.00000"/>
  <variable name="x_0_5" index="4" value="1.00000"/>
  <variable name="x_0_9" index="8" value="1.00000"/>
  <variable name="x_0_10" index="9" value="1.00000"/>
  <variable name="x_0_11" index="10" value="1.00000"/>
  <variable name="x_1_8" index="18" value="1.00000"/>
  <variable name="x_2_7" index="28" value="1.00000"/>
  <variable name="x_3_0" index="33" value="1.00000"/>
  <variable name="x_4_0" index="44" value="1.00000"/>
  <variable name="x_5_0" index="55" value="1.00000"/>
  <variable name="x_6_3" index="69" value="1.00000"/>
  <variable name="x_7_0" index="77" value="1.00000"/>
  <variable name="x_8_4" index="92" value="1.00000"/>
  <variable name="x_9_0" index="99" value="1.00000"/>
  <variable name="x_10_6" index="116" value="1.00000"/>
  <variable name="x_11_0" index="121" value="1.00000"/>
  <variable name="u_1" index="132" value="32.00000"/>
  <variable name="u_2" index="133" value="38.00000"/>
  <variable name="u_3" index="134" value="71.00000"/>
  <variable name="u_4" index="135" value="74.00000"/>
  <variable name="u_5" index="136" value="37.00000"/>
  <variable name="u_6" index="137" value="54.00000"/>
  <variable name="u_7" index="138" value="40.00000"/>
  <variable name="u_8" index="139" value="38.00000"/>
  <variable name="u_9" index="140" value="56.00000"/>
  <variable name="u_10" index="141" value="27.00000"/>
  <variable name="u_11" index="142" value="69.00000"/>
 </variables>
</CPLEXSolution>
